11
0 90 43 53 45 89 100 63 25 59 82 
36 0 67 17 68 30 16 88 87 19 48 
93 22 0 62 29 35 28 47 39 24 81 
5 97 6 0 62 25 46 47 61 38 94 
67 33 39 15 0 18 69 32 71 50 51 
21 39 77 58 15 0 45 45 24 53 57 
7 42 26 25 87 65 0 95 71 27 47 
40 47 54 4 18 93 62 0 77 40 4 
51 62 10 84 66 31 9 74 0 75 53 
80 69 62 26 22 58 4 19 53 0 55 
12 32 98 89 75 85 62 89 10 67 0 
